ATOMIC_SPECIES
Fe  55.845         Fe_ONCV_PBE_FR-1.0.upf

NUMERICAL_ORBITAL
Fe_gga_8au_100Ry_4s2p2d1f.orb

LATTICE_CONSTANT
1.8897261258369282 

LATTICE_VECTORS
2.8660000000      0.0000000000      0.0000000000      
0.0000000000      2.8660000000      0.0000000000      
0.0000000000      0.0000000000      2.8660000000      

ATOMIC_POSITIONS
Direct

Fe
5.0000000000
2
0.0000000000 0.0000000000 0.0000000000 1 1 1 mag 2.5 
0.5000000000 0.5000000000 0.5000000000 1 1 1 mag 2.5 

