INPUT_PARAMETERS
# Created by Atomic Simulation Enviroment
calculation                             scf
nspin                                   4
symmetry                                0
noncolin                                1
lspinorb                                1
ecutwfc                                 100
scf_thr                                 1000000.0
init_chg                                file
out_mul                                 1
out_chg                                 0
out_dos                                 0
out_band                                0
out_wfc_lcao                            0
out_mat_hs2                             1
ks_solver                               scalapack_gvx
scf_nmax                                1
out_bandgap                             0
basis_type                              lcao
gamma_only                              0
smearing_method                         gaussian
smearing_sigma                          0.01
mixing_type                             broyden
mixing_beta                             1e-06
soc_lambda                              1.0
init_wfc                                file
ntype                                   1
dft_functional                          PBE
