Cr  I 
 1.0000000000000000
    -5.9085829754479651    3.4113219705753193    0.0000000000000000
    -5.9085829754479651   -3.4113219705753193    0.0000000000000000
    -0.0000000000000000   -0.0000000000000000   13.8383045240946689
Cr I
   2   6
Cartesian
 -3.9390553165713689 -0.0000000000000001  6.9191522609909084
 -7.8781106331428230  0.0000000000000001  6.9191522631037605
 -2.0911997281050971  1.2073547178350854  5.3707451894634719
 -7.9997826967787260  2.2039672410067395  8.4675593346312361
 -5.9085829680827260  0.9966125228304957  5.3707451894634719
 -5.9085829816313984 -0.9966125228304957  8.4675593346312361
 -3.8173832535263013 -2.2039672406655813  5.3707451894634719
 -9.7259662221999292 -1.2073547181762438  8.4675593346312361
