ATOMIC_SPECIES
Cr  51.9961       Cr.upf
I   126.90447     I.upf

NUMERICAL_ORBITAL
Cr_gga_10au_100Ry_4s2p2d1f.orb
I_gga_8au_100Ry_2s2p1d.orb

LATTICE_CONSTANT
1.889726

LATTICE_VECTORS
-5.908583000      3.4113220000      0.0000000000      
-5.908583000      -3.411322000      0.0000000000      
-0.000000000      -0.000000000      13.838305000      

ATOMIC_POSITIONS
Direct

Cr
0.0000000000
2
0.3333330000 0.3333330000 0.5000000000 1 1 1 mag 0 0 3.0 
0.6666670000 0.6666670000 0.5000000000 1 1 1 mag 0 0 3.0 

I
0.0000000000
6
0.3539260000 0.0000000000 0.3881070000 1 1 1 mag 0 0 0.0 
1.0000000000 0.3539260000 0.6118930000 1 1 1 mag 0 0 0.0 
0.6460740000 0.3539260000 0.3881070000 1 1 1 mag 0 0 0.0 
0.3539260000 0.6460740000 0.6118930000 1 1 1 mag 0 0 0.0 
0.0000000000 0.6460740000 0.3881070000 1 1 1 mag 0 0 0.0 
0.6460740000 1.0000000000 0.6118930000 1 1 1 mag 0 0 0.0 

