 conv_tol = 1d-12
 conv_window = 5
 num_iter = 400
 iprint = 2

Begin Projections
 Mn:l=2,mr=1,2,3,4,5
 O :l=1,mr=1,2,3
End Projections

 dis_conv_tol = 1d-12
 dis_conv_window = 9
 dis_num_iter = 200

 num_wann = 14
 num_bands = 18
 exclude_bands : 1-7,26-40

 dis_win_min = 2.3
 dis_win_max = 17.7

Begin Unit_Cell_Cart
Ang
  3.81 0.00 0.00
  0.00 3.81 0.00
  0.00 0.00 3.81
End Unit_Cell_Cart

Begin Atoms_frac
  Sr      0.000000000000000   0.000000000000000   0.000000000000000
  Mn      0.500000000000000   0.500000000000000   0.500000000000000
  O       0.000000000000000   0.500000000000000   0.500000000000000
  O       0.500000000000000   0.000000000000000   0.500000000000000
  O       0.500000000000000   0.500000000000000   0.000000000000000
End Atoms_frac

mp_grid = 6 6 6

Begin Kpoints
    0.0000000000000000    0.0000000000000000    0.0000000000000000
    0.0000000000000000    0.0000000000000000    0.1666666666666667
    0.0000000000000000    0.0000000000000000    0.3333333333333333
    0.0000000000000000    0.0000000000000000    0.5000000000000000
    0.0000000000000000    0.0000000000000000    0.6666666666666666
    0.0000000000000000    0.0000000000000000    0.8333333333333334
    0.0000000000000000    0.1666666666666667    0.0000000000000000
    0.0000000000000000    0.1666666666666667    0.1666666666666667
    0.0000000000000000    0.1666666666666667    0.3333333333333333
    0.0000000000000000    0.1666666666666667    0.5000000000000000
    0.0000000000000000    0.1666666666666667    0.6666666666666666
    0.0000000000000000    0.1666666666666667    0.8333333333333334
    0.0000000000000000    0.3333333333333333    0.0000000000000000
    0.0000000000000000    0.3333333333333333    0.1666666666666667
    0.0000000000000000    0.3333333333333333    0.3333333333333333
    0.0000000000000000    0.3333333333333333    0.5000000000000000
    0.0000000000000000    0.3333333333333333    0.6666666666666666
    0.0000000000000000    0.3333333333333333    0.8333333333333334
    0.0000000000000000    0.5000000000000000    0.0000000000000000
    0.0000000000000000    0.5000000000000000    0.1666666666666667
    0.0000000000000000    0.5000000000000000    0.3333333333333333
    0.0000000000000000    0.5000000000000000    0.5000000000000000
    0.0000000000000000    0.5000000000000000    0.6666666666666666
    0.0000000000000000    0.5000000000000000    0.8333333333333334
    0.0000000000000000    0.6666666666666666    0.0000000000000000
    0.0000000000000000    0.6666666666666666    0.1666666666666667
    0.0000000000000000    0.6666666666666666    0.3333333333333333
    0.0000000000000000    0.6666666666666666    0.5000000000000000
    0.0000000000000000    0.6666666666666666    0.6666666666666666
    0.0000000000000000    0.6666666666666666    0.8333333333333334
    0.0000000000000000    0.8333333333333334    0.0000000000000000
    0.0000000000000000    0.8333333333333334    0.1666666666666667
    0.0000000000000000    0.8333333333333334    0.3333333333333333
    0.0000000000000000    0.8333333333333334    0.5000000000000000
    0.0000000000000000    0.8333333333333334    0.6666666666666666
    0.0000000000000000    0.8333333333333334    0.8333333333333334
    0.1666666666666667    0.0000000000000000    0.0000000000000000
    0.1666666666666667    0.0000000000000000    0.1666666666666667
    0.1666666666666667    0.0000000000000000    0.3333333333333333
    0.1666666666666667    0.0000000000000000    0.5000000000000000
    0.1666666666666667    0.0000000000000000    0.6666666666666666
    0.1666666666666667    0.0000000000000000    0.8333333333333334
    0.1666666666666667    0.1666666666666667    0.0000000000000000
    0.1666666666666667    0.1666666666666667    0.1666666666666667
    0.1666666666666667    0.1666666666666667    0.3333333333333333
    0.1666666666666667    0.1666666666666667    0.5000000000000000
    0.1666666666666667    0.1666666666666667    0.6666666666666666
    0.1666666666666667    0.1666666666666667    0.8333333333333334
    0.1666666666666667    0.3333333333333333    0.0000000000000000
    0.1666666666666667    0.3333333333333333    0.1666666666666667
    0.1666666666666667    0.3333333333333333    0.3333333333333333
    0.1666666666666667    0.3333333333333333    0.5000000000000000
    0.1666666666666667    0.3333333333333333    0.6666666666666666
    0.1666666666666667    0.3333333333333333    0.8333333333333334
    0.1666666666666667    0.5000000000000000    0.0000000000000000
    0.1666666666666667    0.5000000000000000    0.1666666666666667
    0.1666666666666667    0.5000000000000000    0.3333333333333333
    0.1666666666666667    0.5000000000000000    0.5000000000000000
    0.1666666666666667    0.5000000000000000    0.6666666666666666
    0.1666666666666667    0.5000000000000000    0.8333333333333334
    0.1666666666666667    0.6666666666666666    0.0000000000000000
    0.1666666666666667    0.6666666666666666    0.1666666666666667
    0.1666666666666667    0.6666666666666666    0.3333333333333333
    0.1666666666666667    0.6666666666666666    0.5000000000000000
    0.1666666666666667    0.6666666666666666    0.6666666666666666
    0.1666666666666667    0.6666666666666666    0.8333333333333334
    0.1666666666666667    0.8333333333333334    0.0000000000000000
    0.1666666666666667    0.8333333333333334    0.1666666666666667
    0.1666666666666667    0.8333333333333334    0.3333333333333333
    0.1666666666666667    0.8333333333333334    0.5000000000000000
    0.1666666666666667    0.8333333333333334    0.6666666666666666
    0.1666666666666667    0.8333333333333334    0.8333333333333334
    0.3333333333333333    0.0000000000000000    0.0000000000000000
    0.3333333333333333    0.0000000000000000    0.1666666666666667
    0.3333333333333333    0.0000000000000000    0.3333333333333333
    0.3333333333333333    0.0000000000000000    0.5000000000000000
    0.3333333333333333    0.0000000000000000    0.6666666666666666
    0.3333333333333333    0.0000000000000000    0.8333333333333334
    0.3333333333333333    0.1666666666666667    0.0000000000000000
    0.3333333333333333    0.1666666666666667    0.1666666666666667
    0.3333333333333333    0.1666666666666667    0.3333333333333333
    0.3333333333333333    0.1666666666666667    0.5000000000000000
    0.3333333333333333    0.1666666666666667    0.6666666666666666
    0.3333333333333333    0.1666666666666667    0.8333333333333334
    0.3333333333333333    0.3333333333333333    0.0000000000000000
    0.3333333333333333    0.3333333333333333    0.1666666666666667
    0.3333333333333333    0.3333333333333333    0.3333333333333333
    0.3333333333333333    0.3333333333333333    0.5000000000000000
    0.3333333333333333    0.3333333333333333    0.6666666666666666
    0.3333333333333333    0.3333333333333333    0.8333333333333334
    0.3333333333333333    0.5000000000000000    0.0000000000000000
    0.3333333333333333    0.5000000000000000    0.1666666666666667
    0.3333333333333333    0.5000000000000000    0.3333333333333333
    0.3333333333333333    0.5000000000000000    0.5000000000000000
    0.3333333333333333    0.5000000000000000    0.6666666666666666
    0.3333333333333333    0.5000000000000000    0.8333333333333334
    0.3333333333333333    0.6666666666666666    0.0000000000000000
    0.3333333333333333    0.6666666666666666    0.1666666666666667
    0.3333333333333333    0.6666666666666666    0.3333333333333333
    0.3333333333333333    0.6666666666666666    0.5000000000000000
    0.3333333333333333    0.6666666666666666    0.6666666666666666
    0.3333333333333333    0.6666666666666666    0.8333333333333334
    0.3333333333333333    0.8333333333333334    0.0000000000000000
    0.3333333333333333    0.8333333333333334    0.1666666666666667
    0.3333333333333333    0.8333333333333334    0.3333333333333333
    0.3333333333333333    0.8333333333333334    0.5000000000000000
    0.3333333333333333    0.8333333333333334    0.6666666666666666
    0.3333333333333333    0.8333333333333334    0.8333333333333334
    0.5000000000000000    0.0000000000000000    0.0000000000000000
    0.5000000000000000    0.0000000000000000    0.1666666666666667
    0.5000000000000000    0.0000000000000000    0.3333333333333333
    0.5000000000000000    0.0000000000000000    0.5000000000000000
    0.5000000000000000    0.0000000000000000    0.6666666666666666
    0.5000000000000000    0.0000000000000000    0.8333333333333334
    0.5000000000000000    0.1666666666666667    0.0000000000000000
    0.5000000000000000    0.1666666666666667    0.1666666666666667
    0.5000000000000000    0.1666666666666667    0.3333333333333333
    0.5000000000000000    0.1666666666666667    0.5000000000000000
    0.5000000000000000    0.1666666666666667    0.6666666666666666
    0.5000000000000000    0.1666666666666667    0.8333333333333334
    0.5000000000000000    0.3333333333333333    0.0000000000000000
    0.5000000000000000    0.3333333333333333    0.1666666666666667
    0.5000000000000000    0.3333333333333333    0.3333333333333333
    0.5000000000000000    0.3333333333333333    0.5000000000000000
    0.5000000000000000    0.3333333333333333    0.6666666666666666
    0.5000000000000000    0.3333333333333333    0.8333333333333334
    0.5000000000000000    0.5000000000000000    0.0000000000000000
    0.5000000000000000    0.5000000000000000    0.1666666666666667
    0.5000000000000000    0.5000000000000000    0.3333333333333333
    0.5000000000000000    0.5000000000000000    0.5000000000000000
    0.5000000000000000    0.5000000000000000    0.6666666666666666
    0.5000000000000000    0.5000000000000000    0.8333333333333334
    0.5000000000000000    0.6666666666666666    0.0000000000000000
    0.5000000000000000    0.6666666666666666    0.1666666666666667
    0.5000000000000000    0.6666666666666666    0.3333333333333333
    0.5000000000000000    0.6666666666666666    0.5000000000000000
    0.5000000000000000    0.6666666666666666    0.6666666666666666
    0.5000000000000000    0.6666666666666666    0.8333333333333334
    0.5000000000000000    0.8333333333333334    0.0000000000000000
    0.5000000000000000    0.8333333333333334    0.1666666666666667
    0.5000000000000000    0.8333333333333334    0.3333333333333333
    0.5000000000000000    0.8333333333333334    0.5000000000000000
    0.5000000000000000    0.8333333333333334    0.6666666666666666
    0.5000000000000000    0.8333333333333334    0.8333333333333334
    0.6666666666666666    0.0000000000000000    0.0000000000000000
    0.6666666666666666    0.0000000000000000    0.1666666666666667
    0.6666666666666666    0.0000000000000000    0.3333333333333333
    0.6666666666666666    0.0000000000000000    0.5000000000000000
    0.6666666666666666    0.0000000000000000    0.6666666666666666
    0.6666666666666666    0.0000000000000000    0.8333333333333334
    0.6666666666666666    0.1666666666666667    0.0000000000000000
    0.6666666666666666    0.1666666666666667    0.1666666666666667
    0.6666666666666666    0.1666666666666667    0.3333333333333333
    0.6666666666666666    0.1666666666666667    0.5000000000000000
    0.6666666666666666    0.1666666666666667    0.6666666666666666
    0.6666666666666666    0.1666666666666667    0.8333333333333334
    0.6666666666666666    0.3333333333333333    0.0000000000000000
    0.6666666666666666    0.3333333333333333    0.1666666666666667
    0.6666666666666666    0.3333333333333333    0.3333333333333333
    0.6666666666666666    0.3333333333333333    0.5000000000000000
    0.6666666666666666    0.3333333333333333    0.6666666666666666
    0.6666666666666666    0.3333333333333333    0.8333333333333334
    0.6666666666666666    0.5000000000000000    0.0000000000000000
    0.6666666666666666    0.5000000000000000    0.1666666666666667
    0.6666666666666666    0.5000000000000000    0.3333333333333333
    0.6666666666666666    0.5000000000000000    0.5000000000000000
    0.6666666666666666    0.5000000000000000    0.6666666666666666
    0.6666666666666666    0.5000000000000000    0.8333333333333334
    0.6666666666666666    0.6666666666666666    0.0000000000000000
    0.6666666666666666    0.6666666666666666    0.1666666666666667
    0.6666666666666666    0.6666666666666666    0.3333333333333333
    0.6666666666666666    0.6666666666666666    0.5000000000000000
    0.6666666666666666    0.6666666666666666    0.6666666666666666
    0.6666666666666666    0.6666666666666666    0.8333333333333334
    0.6666666666666666    0.8333333333333334    0.0000000000000000
    0.6666666666666666    0.8333333333333334    0.1666666666666667
    0.6666666666666666    0.8333333333333334    0.3333333333333333
    0.6666666666666666    0.8333333333333334    0.5000000000000000
    0.6666666666666666    0.8333333333333334    0.6666666666666666
    0.6666666666666666    0.8333333333333334    0.8333333333333334
    0.8333333333333334    0.0000000000000000    0.0000000000000000
    0.8333333333333334    0.0000000000000000    0.1666666666666667
    0.8333333333333334    0.0000000000000000    0.3333333333333333
    0.8333333333333334    0.0000000000000000    0.5000000000000000
    0.8333333333333334    0.0000000000000000    0.6666666666666666
    0.8333333333333334    0.0000000000000000    0.8333333333333334
    0.8333333333333334    0.1666666666666667    0.0000000000000000
    0.8333333333333334    0.1666666666666667    0.1666666666666667
    0.8333333333333334    0.1666666666666667    0.3333333333333333
    0.8333333333333334    0.1666666666666667    0.5000000000000000
    0.8333333333333334    0.1666666666666667    0.6666666666666666
    0.8333333333333334    0.1666666666666667    0.8333333333333334
    0.8333333333333334    0.3333333333333333    0.0000000000000000
    0.8333333333333334    0.3333333333333333    0.1666666666666667
    0.8333333333333334    0.3333333333333333    0.3333333333333333
    0.8333333333333334    0.3333333333333333    0.5000000000000000
    0.8333333333333334    0.3333333333333333    0.6666666666666666
    0.8333333333333334    0.3333333333333333    0.8333333333333334
    0.8333333333333334    0.5000000000000000    0.0000000000000000
    0.8333333333333334    0.5000000000000000    0.1666666666666667
    0.8333333333333334    0.5000000000000000    0.3333333333333333
    0.8333333333333334    0.5000000000000000    0.5000000000000000
    0.8333333333333334    0.5000000000000000    0.6666666666666666
    0.8333333333333334    0.5000000000000000    0.8333333333333334
    0.8333333333333334    0.6666666666666666    0.0000000000000000
    0.8333333333333334    0.6666666666666666    0.1666666666666667
    0.8333333333333334    0.6666666666666666    0.3333333333333333
    0.8333333333333334    0.6666666666666666    0.5000000000000000
    0.8333333333333334    0.6666666666666666    0.6666666666666666
    0.8333333333333334    0.6666666666666666    0.8333333333333334
    0.8333333333333334    0.8333333333333334    0.0000000000000000
    0.8333333333333334    0.8333333333333334    0.1666666666666667
    0.8333333333333334    0.8333333333333334    0.3333333333333333
    0.8333333333333334    0.8333333333333334    0.5000000000000000
    0.8333333333333334    0.8333333333333334    0.6666666666666666
    0.8333333333333334    0.8333333333333334    0.8333333333333334
End Kpoints


 write_xyz = true
 write_hr = true
 bands_plot= true
 bands_num_points = 30
 begin kpoint_path
G       0.00000  0.00000  0.00000  M       0.50000  0.50000  0.00000
M       0.50000  0.50000  0.00000  X       0.50000  0.00000  0.00000
X       0.50000  0.00000  0.00000  G       0.00000  0.00000  0.00000
G       0.00000  0.00000  0.00000  R       0.50000  0.50000  0.50000
end kpoint_path
