Cr  I 
 1.0000000000000000
    -0.0000000000000004    3.4113219705753188    5.9085829754479651
    -0.0000000000000004   -3.4113219705753188    5.9085829754479651
    13.8383045240946689    0.0000000000000000    0.0000000000000008
 Cr  I  
   2   6
Cartesian
  6.9191522609909084 -0.0000000000000001  3.9390553165713693
  6.9191522631037596  0.0000000000000001  7.8781106331428230
  5.3707451894634719  1.2073547178350852  2.0911997281050976
  8.4675593346312361  2.2039672410067390  7.9997826967787269
  5.3707451894634719  0.9966125228304957  5.9085829680827260
  8.4675593346312361 -0.9966125228304957  5.9085829816313993
  5.3707451894634719 -2.2039672406655808  3.8173832535263017
  8.4675593346312361 -1.2073547181762436  9.7259662221999292
