Sr Mn  O 
 1.0000000000000000
     0.0000000000000000    3.8100000000000001    3.8100000000000001
     3.8100000000000001    0.0000000000000000    3.8100000000000001
     3.8100000000000001    3.8100000000000001    0.0000000000000000
   2   2   6
Cartesian
  0.0000000000000000  0.0000000000000000  0.0000000000000000
  3.8100000000000001  3.8100000000000001  3.8100000000000001
  1.9050000000000000  1.9050000000000000  1.9050000000000000
  5.7149999999999999  5.7149999999999999  5.7149999999999999
  5.7149999999999999  1.9050000000000000  3.8100000000000001
  5.7149999999999999  5.7149999999999999  3.8100000000000001
  3.8100000000000001  5.7149999999999999  1.9050000000000000
  3.8100000000000009  5.7149999999999999  5.7150000000000007
  5.7149999999999999  3.8100000000000001  1.9050000000000000
  1.9050000000000002  3.8100000000000005  1.9050000000000007
