dis_win_min = -21.673000000000002
dis_win_max = 14.327
dis_froz_min = -0.673
dis_froz_max = 6.827
kmesh_tol = 1e-06
bands_plot_format = gnuplot
num_bands = 48
num_wann = 28
bands_num_points = 410
num_iter = 300
search_shells = 24
guiding_centres = true
write_xyz = true
bands_plot = true
write_hr = true

begin projections
c=5.715,1.905,3.81: l=1, mr=1 		# O1|pz|None|None
c=5.715,1.905,3.81: l=1, mr=2 		# O1|px|None|None
c=5.715,1.905,3.81: l=1, mr=3 		# O1|py|None|None
c=5.715,5.715,3.81: l=1, mr=1 		# O2|pz|None|None
c=5.715,5.715,3.81: l=1, mr=2 		# O2|px|None|None
c=5.715,5.715,3.81: l=1, mr=3 		# O2|py|None|None
c=3.81,5.715,1.905: l=1, mr=1 		# O3|pz|None|None
c=3.81,5.715,1.905: l=1, mr=2 		# O3|px|None|None
c=3.81,5.715,1.905: l=1, mr=3 		# O3|py|None|None
c=3.810000000000001,5.715,5.715000000000001: l=1, mr=1 		# O4|pz|None|None
c=3.810000000000001,5.715,5.715000000000001: l=1, mr=2 		# O4|px|None|None
c=3.810000000000001,5.715,5.715000000000001: l=1, mr=3 		# O4|py|None|None
c=5.715,3.81,1.905: l=1, mr=1 		# O5|pz|None|None
c=5.715,3.81,1.905: l=1, mr=2 		# O5|px|None|None
c=5.715,3.81,1.905: l=1, mr=3 		# O5|py|None|None
c=1.9050000000000002,3.8100000000000005,1.9050000000000007: l=1, mr=1 		# O6|pz|None|None
c=1.9050000000000002,3.8100000000000005,1.9050000000000007: l=1, mr=2 		# O6|px|None|None
c=1.9050000000000002,3.8100000000000005,1.9050000000000007: l=1, mr=3 		# O6|py|None|None
c=1.905,1.905,1.905: l=2, mr=1 		# Mn1|dz2|None|None
c=1.905,1.905,1.905: l=2, mr=2 		# Mn1|dxz|None|None
c=1.905,1.905,1.905: l=2, mr=3 		# Mn1|dyz|None|None
c=1.905,1.905,1.905: l=2, mr=4 		# Mn1|dx2-y2|None|None
c=1.905,1.905,1.905: l=2, mr=5 		# Mn1|dxy|None|None
c=5.715,5.715,5.715: l=2, mr=1 		# Mn2|dz2|None|None
c=5.715,5.715,5.715: l=2, mr=2 		# Mn2|dxz|None|None
c=5.715,5.715,5.715: l=2, mr=3 		# Mn2|dyz|None|None
c=5.715,5.715,5.715: l=2, mr=4 		# Mn2|dx2-y2|None|None
c=5.715,5.715,5.715: l=2, mr=5 		# Mn2|dxy|None|None
end projections

begin unit_cell_cart
	0.0	3.81	3.81
	3.81	0.0	3.81
	3.81	3.81	0.0
end unit_cell_cart


begin atoms_cart
Sr	0.0	0.0	0.0
Sr	3.81	3.81	3.81
Mn	1.905	1.905	1.905
Mn	5.715	5.715	5.715
O	5.715	1.905	3.81
O	5.715	5.715	3.81
O	3.81	5.715	1.905
O	3.810000000000001	5.715	5.715000000000001
O	5.715	3.81	1.905
O	1.9050000000000002	3.8100000000000005	1.9050000000000007
end atoms_cart

mp_grid = 	8	8	8
begin kpoint_path
GM 0.0 0.0 0.0	Z 0.0 0.0 0.5
Z 0.0 0.0 0.5	A 0.5 0.0 0.5
A 0.5 0.0 0.5	R 0.5 0.5 0.5
R 0.5 0.5 0.5	Z 0.0 0.0 0.5
end kpoint_path


begin kpoints
      0.000000000000      0.000000000000      0.000000000000
      0.125000000000      0.000000000000      0.000000000000
      0.250000000000      0.000000000000      0.000000000000
      0.375000000000      0.000000000000      0.000000000000
      0.500000000000      0.000000000000      0.000000000000
      0.125000000000      0.125000000000      0.000000000000
      0.250000000000      0.125000000000      0.000000000000
      0.375000000000      0.125000000000      0.000000000000
      0.500000000000      0.125000000000      0.000000000000
     -0.375000000000      0.125000000000      0.000000000000
     -0.250000000000      0.125000000000      0.000000000000
     -0.125000000000      0.125000000000      0.000000000000
      0.250000000000      0.250000000000      0.000000000000
      0.375000000000      0.250000000000      0.000000000000
      0.500000000000      0.250000000000      0.000000000000
     -0.375000000000      0.250000000000      0.000000000000
     -0.250000000000      0.250000000000      0.000000000000
      0.375000000000      0.375000000000      0.000000000000
      0.500000000000      0.375000000000      0.000000000000
     -0.375000000000      0.375000000000      0.000000000000
      0.500000000000      0.500000000000      0.000000000000
      0.375000000000      0.250000000000      0.125000000000
      0.500000000000      0.250000000000      0.125000000000
     -0.375000000000      0.250000000000      0.125000000000
      0.500000000000      0.375000000000      0.125000000000
     -0.375000000000      0.375000000000      0.125000000000
     -0.250000000000      0.375000000000      0.125000000000
     -0.375000000000      0.500000000000      0.125000000000
     -0.250000000000      0.500000000000      0.250000000000
     -0.125000000000     -0.000000000000     -0.000000000000
      0.000000000000      0.125000000000      0.000000000000
     -0.000000000000     -0.125000000000     -0.000000000000
      0.000000000000      0.000000000000      0.125000000000
     -0.000000000000     -0.000000000000     -0.125000000000
      0.125000000000      0.125000000000      0.125000000000
     -0.125000000000     -0.125000000000     -0.125000000000
     -0.250000000000     -0.000000000000     -0.000000000000
      0.000000000000      0.250000000000      0.000000000000
     -0.000000000000     -0.250000000000     -0.000000000000
      0.000000000000      0.000000000000      0.250000000000
     -0.000000000000     -0.000000000000     -0.250000000000
      0.250000000000      0.250000000000      0.250000000000
     -0.250000000000     -0.250000000000     -0.250000000000
     -0.375000000000     -0.000000000000     -0.000000000000
      0.000000000000      0.375000000000      0.000000000000
     -0.000000000000     -0.375000000000     -0.000000000000
      0.000000000000      0.000000000000      0.375000000000
     -0.000000000000     -0.000000000000     -0.375000000000
      0.375000000000      0.375000000000      0.375000000000
     -0.375000000000     -0.375000000000     -0.375000000000
      0.000000000000      0.500000000000      0.000000000000
      0.000000000000      0.000000000000      0.500000000000
      0.500000000000      0.500000000000      0.500000000000
     -0.125000000000     -0.125000000000     -0.000000000000
      0.000000000000      0.125000000000      0.125000000000
     -0.000000000000     -0.125000000000     -0.125000000000
      0.125000000000      0.000000000000      0.125000000000
     -0.125000000000     -0.000000000000     -0.125000000000
     -0.250000000000     -0.125000000000     -0.000000000000
      0.000000000000      0.250000000000      0.125000000000
     -0.000000000000     -0.250000000000     -0.125000000000
      0.125000000000      0.000000000000      0.250000000000
     -0.125000000000     -0.000000000000     -0.250000000000
      0.125000000000      0.125000000000     -0.125000000000
     -0.125000000000     -0.125000000000      0.125000000000
      0.250000000000      0.125000000000      0.250000000000
     -0.250000000000     -0.125000000000     -0.250000000000
      0.125000000000      0.250000000000     -0.000000000000
     -0.125000000000     -0.250000000000      0.000000000000
      0.125000000000     -0.125000000000     -0.125000000000
     -0.125000000000      0.125000000000      0.125000000000
      0.250000000000      0.250000000000      0.125000000000
     -0.250000000000     -0.250000000000     -0.125000000000
     -0.000000000000      0.125000000000      0.250000000000
      0.000000000000     -0.125000000000     -0.250000000000
     -0.125000000000      0.125000000000     -0.125000000000
      0.125000000000     -0.125000000000      0.125000000000
      0.125000000000      0.250000000000      0.250000000000
     -0.125000000000     -0.250000000000     -0.250000000000
      0.250000000000     -0.000000000000      0.125000000000
     -0.250000000000      0.000000000000     -0.125000000000
     -0.375000000000     -0.125000000000     -0.000000000000
      0.000000000000      0.375000000000      0.125000000000
     -0.000000000000     -0.375000000000     -0.125000000000
      0.125000000000      0.000000000000      0.375000000000
     -0.125000000000     -0.000000000000     -0.375000000000
      0.125000000000      0.125000000000     -0.250000000000
     -0.125000000000     -0.125000000000      0.250000000000
      0.375000000000      0.250000000000      0.375000000000
     -0.375000000000     -0.250000000000     -0.375000000000
      0.125000000000      0.375000000000     -0.000000000000
     -0.125000000000     -0.375000000000      0.000000000000
      0.250000000000     -0.125000000000     -0.125000000000
     -0.250000000000      0.125000000000      0.125000000000
      0.375000000000      0.375000000000      0.250000000000
     -0.375000000000     -0.375000000000     -0.250000000000
     -0.000000000000      0.125000000000      0.375000000000
      0.000000000000     -0.125000000000     -0.375000000000
     -0.125000000000      0.250000000000     -0.125000000000
      0.125000000000     -0.250000000000      0.125000000000
      0.250000000000      0.375000000000      0.375000000000
     -0.250000000000     -0.375000000000     -0.375000000000
      0.375000000000     -0.000000000000      0.125000000000
     -0.375000000000      0.000000000000     -0.125000000000
     -0.500000000000     -0.125000000000     -0.000000000000
      0.000000000000      0.500000000000      0.125000000000
     -0.000000000000     -0.500000000000     -0.125000000000
      0.125000000000      0.000000000000      0.500000000000
     -0.125000000000     -0.000000000000     -0.500000000000
      0.125000000000      0.125000000000     -0.375000000000
     -0.125000000000     -0.125000000000      0.375000000000
      0.500000000000      0.375000000000      0.500000000000
     -0.500000000000     -0.375000000000     -0.500000000000
      0.125000000000      0.500000000000     -0.000000000000
     -0.125000000000     -0.500000000000      0.000000000000
      0.375000000000     -0.125000000000     -0.125000000000
     -0.375000000000      0.125000000000      0.125000000000
      0.500000000000      0.500000000000      0.375000000000
     -0.500000000000     -0.500000000000     -0.375000000000
     -0.000000000000      0.125000000000      0.500000000000
      0.000000000000     -0.125000000000     -0.500000000000
     -0.125000000000      0.375000000000     -0.125000000000
      0.125000000000     -0.375000000000      0.125000000000
      0.375000000000      0.500000000000      0.500000000000
     -0.375000000000     -0.500000000000     -0.500000000000
      0.500000000000     -0.000000000000      0.125000000000
     -0.500000000000      0.000000000000     -0.125000000000
      0.375000000000     -0.125000000000     -0.000000000000
      0.000000000000     -0.375000000000      0.125000000000
     -0.000000000000      0.375000000000     -0.125000000000
      0.125000000000      0.000000000000     -0.375000000000
     -0.125000000000     -0.000000000000      0.375000000000
      0.125000000000      0.125000000000      0.500000000000
     -0.125000000000     -0.125000000000     -0.500000000000
     -0.375000000000     -0.500000000000     -0.375000000000
      0.375000000000      0.500000000000      0.375000000000
      0.125000000000     -0.375000000000     -0.000000000000
     -0.125000000000      0.375000000000      0.000000000000
     -0.500000000000     -0.125000000000     -0.125000000000
      0.500000000000      0.125000000000      0.125000000000
     -0.375000000000     -0.375000000000     -0.500000000000
      0.375000000000      0.375000000000      0.500000000000
     -0.000000000000      0.125000000000     -0.375000000000
      0.000000000000     -0.125000000000      0.375000000000
     -0.125000000000     -0.500000000000     -0.125000000000
      0.125000000000      0.500000000000      0.125000000000
     -0.500000000000     -0.375000000000     -0.375000000000
      0.500000000000      0.375000000000      0.375000000000
     -0.375000000000     -0.000000000000      0.125000000000
      0.375000000000      0.000000000000     -0.125000000000
      0.250000000000     -0.125000000000     -0.000000000000
      0.000000000000     -0.250000000000      0.125000000000
     -0.000000000000      0.250000000000     -0.125000000000
      0.125000000000      0.000000000000     -0.250000000000
     -0.125000000000     -0.000000000000      0.250000000000
      0.125000000000      0.125000000000      0.375000000000
     -0.125000000000     -0.125000000000     -0.375000000000
     -0.250000000000     -0.375000000000     -0.250000000000
      0.250000000000      0.375000000000      0.250000000000
      0.125000000000     -0.250000000000     -0.000000000000
     -0.125000000000      0.250000000000      0.000000000000
     -0.375000000000     -0.125000000000     -0.125000000000
      0.375000000000      0.125000000000      0.125000000000
     -0.250000000000     -0.250000000000     -0.375000000000
      0.250000000000      0.250000000000      0.375000000000
     -0.000000000000      0.125000000000     -0.250000000000
      0.000000000000     -0.125000000000      0.250000000000
     -0.125000000000     -0.375000000000     -0.125000000000
      0.125000000000      0.375000000000      0.125000000000
     -0.375000000000     -0.250000000000     -0.250000000000
      0.375000000000      0.250000000000      0.250000000000
     -0.250000000000     -0.000000000000      0.125000000000
      0.250000000000      0.000000000000     -0.125000000000
      0.125000000000     -0.125000000000     -0.000000000000
      0.000000000000     -0.125000000000      0.125000000000
     -0.000000000000      0.125000000000     -0.125000000000
      0.125000000000      0.000000000000     -0.125000000000
     -0.125000000000     -0.000000000000      0.125000000000
      0.125000000000      0.125000000000      0.250000000000
     -0.125000000000     -0.125000000000     -0.250000000000
     -0.125000000000     -0.250000000000     -0.125000000000
      0.125000000000      0.250000000000      0.125000000000
     -0.250000000000     -0.125000000000     -0.125000000000
      0.250000000000      0.125000000000      0.125000000000
     -0.250000000000     -0.250000000000     -0.000000000000
      0.000000000000      0.250000000000      0.250000000000
     -0.000000000000     -0.250000000000     -0.250000000000
      0.250000000000      0.000000000000      0.250000000000
     -0.250000000000     -0.000000000000     -0.250000000000
     -0.375000000000     -0.250000000000     -0.000000000000
      0.000000000000      0.375000000000      0.250000000000
     -0.000000000000     -0.375000000000     -0.250000000000
      0.250000000000      0.000000000000      0.375000000000
     -0.250000000000     -0.000000000000     -0.375000000000
      0.250000000000      0.250000000000     -0.125000000000
     -0.250000000000     -0.250000000000      0.125000000000
      0.375000000000      0.125000000000      0.375000000000
     -0.375000000000     -0.125000000000     -0.375000000000
      0.250000000000      0.375000000000     -0.000000000000
     -0.250000000000     -0.375000000000      0.000000000000
      0.125000000000     -0.250000000000     -0.250000000000
     -0.125000000000      0.250000000000      0.250000000000
      0.375000000000      0.375000000000      0.125000000000
     -0.375000000000     -0.375000000000     -0.125000000000
     -0.000000000000      0.250000000000      0.375000000000
      0.000000000000     -0.250000000000     -0.375000000000
     -0.250000000000      0.125000000000     -0.250000000000
      0.250000000000     -0.125000000000      0.250000000000
      0.125000000000      0.375000000000      0.375000000000
     -0.125000000000     -0.375000000000     -0.375000000000
      0.375000000000     -0.000000000000      0.250000000000
     -0.375000000000      0.000000000000     -0.250000000000
     -0.500000000000     -0.250000000000     -0.000000000000
      0.000000000000      0.500000000000      0.250000000000
     -0.000000000000     -0.500000000000     -0.250000000000
      0.250000000000      0.000000000000      0.500000000000
     -0.250000000000     -0.000000000000     -0.500000000000
      0.250000000000      0.250000000000     -0.250000000000
     -0.250000000000     -0.250000000000      0.250000000000
      0.500000000000      0.250000000000      0.500000000000
     -0.500000000000     -0.250000000000     -0.500000000000
      0.250000000000      0.500000000000     -0.000000000000
     -0.250000000000     -0.500000000000      0.000000000000
      0.250000000000     -0.250000000000     -0.250000000000
     -0.250000000000      0.250000000000      0.250000000000
      0.500000000000      0.500000000000      0.250000000000
     -0.500000000000     -0.500000000000     -0.250000000000
     -0.000000000000      0.250000000000      0.500000000000
      0.000000000000     -0.250000000000     -0.500000000000
     -0.250000000000      0.250000000000     -0.250000000000
      0.250000000000     -0.250000000000      0.250000000000
      0.250000000000      0.500000000000      0.500000000000
     -0.250000000000     -0.500000000000     -0.500000000000
      0.500000000000     -0.000000000000      0.250000000000
     -0.500000000000      0.000000000000     -0.250000000000
      0.375000000000     -0.250000000000     -0.000000000000
      0.000000000000     -0.375000000000      0.250000000000
     -0.000000000000      0.375000000000     -0.250000000000
      0.250000000000      0.000000000000     -0.375000000000
     -0.250000000000     -0.000000000000      0.375000000000
      0.250000000000      0.250000000000      0.625000000000
     -0.250000000000     -0.250000000000     -0.625000000000
     -0.375000000000     -0.625000000000     -0.375000000000
      0.375000000000      0.625000000000      0.375000000000
      0.250000000000     -0.375000000000     -0.000000000000
     -0.250000000000      0.375000000000      0.000000000000
     -0.625000000000     -0.250000000000     -0.250000000000
      0.625000000000      0.250000000000      0.250000000000
     -0.375000000000     -0.375000000000     -0.625000000000
      0.375000000000      0.375000000000      0.625000000000
     -0.000000000000      0.250000000000     -0.375000000000
      0.000000000000     -0.250000000000      0.375000000000
     -0.250000000000     -0.625000000000     -0.250000000000
      0.250000000000      0.625000000000      0.250000000000
     -0.625000000000     -0.375000000000     -0.375000000000
      0.625000000000      0.375000000000      0.375000000000
     -0.375000000000     -0.000000000000      0.250000000000
      0.375000000000      0.000000000000     -0.250000000000
      0.250000000000     -0.250000000000     -0.000000000000
      0.000000000000     -0.250000000000      0.250000000000
     -0.000000000000      0.250000000000     -0.250000000000
      0.250000000000      0.000000000000     -0.250000000000
     -0.250000000000     -0.000000000000      0.250000000000
      0.250000000000      0.250000000000      0.500000000000
     -0.250000000000     -0.250000000000     -0.500000000000
     -0.250000000000     -0.500000000000     -0.250000000000
      0.250000000000      0.500000000000      0.250000000000
     -0.500000000000     -0.250000000000     -0.250000000000
      0.500000000000      0.250000000000      0.250000000000
     -0.375000000000     -0.375000000000     -0.000000000000
      0.000000000000      0.375000000000      0.375000000000
     -0.000000000000     -0.375000000000     -0.375000000000
      0.375000000000      0.000000000000      0.375000000000
     -0.375000000000     -0.000000000000     -0.375000000000
     -0.500000000000     -0.375000000000     -0.000000000000
      0.000000000000      0.500000000000      0.375000000000
     -0.000000000000     -0.500000000000     -0.375000000000
      0.375000000000      0.000000000000      0.500000000000
     -0.375000000000     -0.000000000000     -0.500000000000
      0.375000000000      0.375000000000     -0.125000000000
     -0.375000000000     -0.375000000000      0.125000000000
      0.500000000000      0.125000000000      0.500000000000
     -0.500000000000     -0.125000000000     -0.500000000000
      0.375000000000      0.500000000000     -0.000000000000
     -0.375000000000     -0.500000000000      0.000000000000
      0.125000000000     -0.375000000000     -0.375000000000
     -0.125000000000      0.375000000000      0.375000000000
      0.500000000000      0.500000000000      0.125000000000
     -0.500000000000     -0.500000000000     -0.125000000000
     -0.000000000000      0.375000000000      0.500000000000
      0.000000000000     -0.375000000000     -0.500000000000
     -0.375000000000      0.125000000000     -0.375000000000
      0.375000000000     -0.125000000000      0.375000000000
      0.125000000000      0.500000000000      0.500000000000
     -0.125000000000     -0.500000000000     -0.500000000000
      0.500000000000     -0.000000000000      0.375000000000
     -0.500000000000      0.000000000000     -0.375000000000
      0.375000000000     -0.375000000000     -0.000000000000
      0.000000000000     -0.375000000000      0.375000000000
     -0.000000000000      0.375000000000     -0.375000000000
      0.375000000000      0.000000000000     -0.375000000000
     -0.375000000000     -0.000000000000      0.375000000000
      0.375000000000      0.375000000000      0.750000000000
     -0.375000000000     -0.375000000000     -0.750000000000
     -0.375000000000     -0.750000000000     -0.375000000000
      0.375000000000      0.750000000000      0.375000000000
     -0.750000000000     -0.375000000000     -0.375000000000
      0.750000000000      0.375000000000      0.375000000000
      0.000000000000      0.500000000000      0.500000000000
      0.500000000000      0.000000000000      0.500000000000
     -0.375000000000     -0.250000000000     -0.125000000000
      0.125000000000      0.375000000000      0.250000000000
     -0.125000000000     -0.375000000000     -0.250000000000
      0.250000000000      0.125000000000      0.375000000000
     -0.250000000000     -0.125000000000     -0.375000000000
      0.250000000000      0.125000000000     -0.125000000000
     -0.250000000000     -0.125000000000      0.125000000000
      0.375000000000      0.125000000000      0.250000000000
     -0.375000000000     -0.125000000000     -0.250000000000
      0.125000000000     -0.250000000000     -0.125000000000
     -0.125000000000      0.250000000000      0.125000000000
      0.125000000000      0.250000000000     -0.125000000000
     -0.125000000000     -0.250000000000      0.125000000000
      0.125000000000     -0.125000000000     -0.250000000000
     -0.125000000000      0.125000000000      0.250000000000
      0.250000000000      0.375000000000      0.125000000000
     -0.250000000000     -0.375000000000     -0.125000000000
     -0.125000000000      0.125000000000     -0.250000000000
      0.125000000000     -0.125000000000      0.250000000000
     -0.250000000000      0.125000000000     -0.125000000000
      0.250000000000     -0.125000000000      0.125000000000
      0.125000000000      0.250000000000      0.375000000000
     -0.125000000000     -0.250000000000     -0.375000000000
     -0.500000000000     -0.250000000000     -0.125000000000
      0.125000000000      0.500000000000      0.250000000000
     -0.125000000000     -0.500000000000     -0.250000000000
      0.250000000000      0.125000000000      0.500000000000
     -0.250000000000     -0.125000000000     -0.500000000000
      0.250000000000      0.125000000000     -0.250000000000
     -0.250000000000     -0.125000000000      0.250000000000
      0.500000000000      0.250000000000      0.375000000000
     -0.500000000000     -0.250000000000     -0.375000000000
      0.125000000000     -0.375000000000     -0.125000000000
     -0.125000000000      0.375000000000      0.125000000000
      0.125000000000      0.375000000000     -0.125000000000
     -0.125000000000     -0.375000000000      0.125000000000
      0.250000000000     -0.125000000000     -0.250000000000
     -0.250000000000      0.125000000000      0.250000000000
     -0.375000000000     -0.250000000000     -0.500000000000
      0.375000000000      0.250000000000      0.500000000000
      0.375000000000      0.500000000000      0.250000000000
     -0.375000000000     -0.500000000000     -0.250000000000
     -0.125000000000      0.125000000000     -0.375000000000
      0.125000000000     -0.125000000000      0.375000000000
     -0.250000000000      0.250000000000      0.125000000000
      0.250000000000     -0.250000000000     -0.125000000000
     -0.125000000000      0.125000000000      0.375000000000
      0.125000000000     -0.125000000000     -0.375000000000
     -0.250000000000      0.250000000000     -0.125000000000
      0.250000000000     -0.250000000000      0.125000000000
     -0.500000000000     -0.375000000000     -0.250000000000
      0.500000000000      0.375000000000      0.250000000000
      0.250000000000      0.375000000000      0.500000000000
     -0.250000000000     -0.375000000000     -0.500000000000
     -0.375000000000     -0.125000000000      0.125000000000
      0.375000000000      0.125000000000     -0.125000000000
      0.125000000000     -0.250000000000      0.250000000000
     -0.125000000000      0.250000000000     -0.250000000000
      0.375000000000     -0.125000000000      0.125000000000
     -0.375000000000      0.125000000000     -0.125000000000
     -0.125000000000     -0.250000000000      0.250000000000
      0.125000000000      0.250000000000     -0.250000000000
     -0.250000000000     -0.500000000000     -0.375000000000
      0.250000000000      0.500000000000      0.375000000000
     -0.500000000000     -0.125000000000     -0.250000000000
      0.500000000000      0.125000000000      0.250000000000
     -0.250000000000     -0.500000000000     -0.125000000000
      0.250000000000      0.500000000000      0.125000000000
     -0.125000000000     -0.250000000000     -0.500000000000
      0.125000000000      0.250000000000      0.500000000000
      0.375000000000     -0.250000000000     -0.125000000000
      0.125000000000     -0.375000000000      0.250000000000
     -0.125000000000      0.375000000000     -0.250000000000
      0.250000000000      0.125000000000     -0.375000000000
     -0.250000000000     -0.125000000000      0.375000000000
     -0.375000000000     -0.625000000000     -0.500000000000
      0.375000000000      0.625000000000      0.500000000000
      0.125000000000      0.500000000000     -0.125000000000
     -0.125000000000     -0.500000000000      0.125000000000
     -0.625000000000     -0.125000000000     -0.250000000000
      0.625000000000      0.125000000000      0.250000000000
      0.500000000000      0.625000000000      0.375000000000
     -0.500000000000     -0.625000000000     -0.375000000000
     -0.125000000000      0.125000000000      0.500000000000
      0.125000000000     -0.125000000000     -0.500000000000
     -0.250000000000     -0.625000000000     -0.125000000000
      0.250000000000      0.625000000000      0.125000000000
      0.375000000000      0.500000000000      0.625000000000
     -0.375000000000     -0.500000000000     -0.625000000000
      0.500000000000     -0.125000000000      0.125000000000
     -0.500000000000      0.125000000000     -0.125000000000
     -0.125000000000     -0.250000000000     -0.625000000000
      0.125000000000      0.250000000000      0.625000000000
     -0.500000000000     -0.375000000000     -0.125000000000
      0.125000000000      0.500000000000      0.375000000000
     -0.125000000000     -0.500000000000     -0.375000000000
      0.375000000000      0.125000000000      0.500000000000
     -0.375000000000     -0.125000000000     -0.500000000000
      0.375000000000      0.250000000000     -0.125000000000
     -0.375000000000     -0.250000000000      0.125000000000
      0.500000000000      0.125000000000      0.375000000000
     -0.500000000000     -0.125000000000     -0.375000000000
      0.125000000000     -0.375000000000     -0.250000000000
     -0.125000000000      0.375000000000      0.250000000000
      0.250000000000      0.375000000000     -0.125000000000
     -0.250000000000     -0.375000000000      0.125000000000
      0.125000000000     -0.250000000000     -0.375000000000
     -0.125000000000      0.250000000000      0.375000000000
      0.375000000000      0.500000000000      0.125000000000
     -0.375000000000     -0.500000000000     -0.125000000000
     -0.250000000000      0.125000000000     -0.375000000000
      0.250000000000     -0.125000000000      0.375000000000
     -0.375000000000      0.125000000000     -0.250000000000
      0.375000000000     -0.125000000000      0.250000000000
      0.125000000000      0.375000000000      0.500000000000
     -0.125000000000     -0.375000000000     -0.500000000000
      0.375000000000     -0.375000000000     -0.125000000000
      0.125000000000     -0.375000000000      0.375000000000
     -0.125000000000      0.375000000000     -0.375000000000
      0.375000000000      0.125000000000     -0.375000000000
     -0.375000000000     -0.125000000000      0.375000000000
      0.375000000000      0.250000000000      0.750000000000
     -0.375000000000     -0.250000000000     -0.750000000000
     -0.375000000000     -0.750000000000     -0.500000000000
      0.375000000000      0.750000000000      0.500000000000
      0.125000000000      0.500000000000     -0.250000000000
     -0.125000000000     -0.500000000000      0.250000000000
      0.250000000000     -0.500000000000     -0.125000000000
     -0.250000000000      0.500000000000      0.125000000000
     -0.750000000000     -0.250000000000     -0.375000000000
      0.750000000000      0.250000000000      0.375000000000
      0.500000000000      0.750000000000      0.375000000000
     -0.500000000000     -0.750000000000     -0.375000000000
     -0.500000000000     -0.375000000000     -0.750000000000
      0.500000000000      0.375000000000      0.750000000000
     -0.250000000000      0.125000000000      0.500000000000
      0.250000000000     -0.125000000000     -0.500000000000
      0.750000000000      0.375000000000      0.250000000000
     -0.750000000000     -0.375000000000     -0.250000000000
     -0.125000000000      0.250000000000     -0.500000000000