ATOMIC_SPECIES
Fe  55.845        Fe.upf

NUMERICAL_ORBITAL
Fe_gga_10au_100Ry_4s2p2d1f.orb

LATTICE_CONSTANT
1.889726

LATTICE_VECTORS
2.3150000000      0.0000000000      0.0000000000      
0.0000000000      2.3150000000      0.0000000000      
0.0000000000      0.0000000000      15.000000000      

ATOMIC_POSITIONS
Direct

Fe
0.0000000000
1
0.0000000000 0.0000000000 0.0000000000 1 1 1 v 0.0 0.0 0.0 mag 0.0 0.0 3.0 

