Cr  I 
 1.0000000000000000
    -5.9085829754479642    0.0000000000000002    3.4113219705753193
    -5.9085829754479642   -0.0000000000000002   -3.4113219705753193
     0.0000000000000000  -13.8383045240946689    0.0000000000000008
   2   6
Cartesian
 -3.9390553165713689 -6.9191522609909084  0.0000000000000003
 -7.8781106331428230 -6.9191522631037605  0.0000000000000005
 -2.0911997281050967 -5.3707451894634719  1.2073547178350856
 -7.9997826967787260 -8.4675593346312361  2.2039672410067399
 -5.9085829680827251 -5.3707451894634719  0.9966125228304961
 -5.9085829816313975 -8.4675593346312361 -0.9966125228304952
 -3.8173832535263013 -5.3707451894634719 -2.2039672406655808
 -9.7259662221999275 -8.4675593346312361 -1.2073547181762434
