KPOINTS created by Atomic Simulation Environment
0
Gamma
9 9 1 
0 0 0
