#dis_win_min = -10.323
#dis_win_max = 2.677
#dis_froz_min = -10.323
#dis_froz_max = 0.17700000000000005
kmesh_tol = 1e-04
bands_plot_format = gnuplot
num_bands = 56
num_wann = 56
bands_num_points = 410
num_iter = 300
search_shells = 24
guiding_centres = true
write_xyz = true
bands_plot = true
write_hr = true
spinors= true
exclude_bands=1-24, 81-96

begin projections
Cr: d
I : p
end projections

begin kpoint_path
X 0.5 0.0 0.0	GM 0.0 0.0 0.5
GM 0.0 0.0 0.5	Y 0.0 0.5 0.0
Y 0.0 0.5 0.0	S 0.5 0.5 0.0
S 0.5 0.5 0.0	X 0.5 0.0 0.0
X 0.5 0.0 0.0	R 0.5 0.5 0.5
R 0.5 0.5 0.5	GM 0.0 0.0 0.0
end kpoint_path



begin unit_cell_cart
    -5.9085830     3.4113220     0.0000000
    -5.9085830    -3.4113220     0.0000000
    -0.0000000    -0.0000000    13.8383045
end unit_cell_cart

begin atoms_cart
Cr      -3.9390553     0.0000000     6.9191523
Cr      -7.8781106    -0.0000000     6.9191523
I       -2.0911997     1.2073547     5.3707452
I       -7.9997827     2.2039672     8.4675593
I       -5.9085830     0.9966125     5.3707452
I       -5.9085830    -0.9966125     8.4675593
I       -3.8173833    -2.2039672     5.3707452
I       -9.7259662    -1.2073547     8.4675593
end atoms_cart

mp_grid =     9     9     1

begin kpoints
      0.000000000000      0.000000000000      0.000000000000
      0.111111111111      0.000000000000      0.000000000000
      0.222222222222      0.000000000000      0.000000000000
      0.333333333333      0.000000000000      0.000000000000
      0.444444444444      0.000000000000      0.000000000000
      0.222222222222      0.111111111111      0.000000000000
      0.333333333333      0.111111111111      0.000000000000
      0.444444444444      0.111111111111      0.000000000000
     -0.444444444444      0.111111111111      0.000000000000
     -0.333333333333      0.111111111111      0.000000000000
     -0.222222222222      0.111111111111      0.000000000000
      0.444444444444      0.222222222222      0.000000000000
     -0.444444444444      0.222222222222      0.000000000000
     -0.333333333333      0.222222222222      0.000000000000
     -0.333333333333      0.333333333333      0.000000000000
     -0.111111111111     -0.000000000000     -0.000000000000
     -0.111111111111     -0.111111111111      0.000000000000
      0.111111111111      0.111111111111     -0.000000000000
     -0.000000000000      0.111111111111      0.000000000000
      0.000000000000     -0.111111111111     -0.000000000000
     -0.222222222222     -0.000000000000     -0.000000000000
     -0.222222222222     -0.222222222222      0.000000000000
      0.222222222222      0.222222222222     -0.000000000000
     -0.000000000000      0.222222222222      0.000000000000
      0.000000000000     -0.222222222222     -0.000000000000
     -0.333333333333     -0.000000000000     -0.000000000000
     -0.333333333333     -0.333333333333      0.000000000000
      0.333333333333      0.333333333333     -0.000000000000
     -0.000000000000      0.333333333333      0.000000000000
      0.000000000000     -0.333333333333     -0.000000000000
     -0.444444444444     -0.000000000000     -0.000000000000
     -0.444444444444     -0.444444444444      0.000000000000
      0.444444444444      0.444444444444     -0.000000000000
     -0.000000000000      0.444444444444      0.000000000000
      0.000000000000     -0.444444444444     -0.000000000000
     -0.222222222222     -0.111111111111     -0.000000000000
     -0.111111111111     -0.222222222222      0.000000000000
      0.111111111111      0.222222222222     -0.000000000000
     -0.111111111111      0.111111111111      0.000000000000
      0.111111111111     -0.111111111111     -0.000000000000
     -0.333333333333     -0.111111111111     -0.000000000000
     -0.222222222222     -0.333333333333      0.000000000000
      0.222222222222      0.333333333333     -0.000000000000
     -0.111111111111      0.222222222222      0.000000000000
      0.111111111111     -0.222222222222     -0.000000000000
     -0.444444444444     -0.111111111111     -0.000000000000
     -0.333333333333     -0.444444444444      0.000000000000
      0.333333333333      0.444444444444     -0.000000000000
     -0.111111111111      0.333333333333      0.000000000000
      0.111111111111     -0.333333333333     -0.000000000000
      0.444444444444     -0.111111111111     -0.000000000000
      0.555555555556      0.444444444444      0.000000000000
     -0.555555555556     -0.444444444444     -0.000000000000
     -0.111111111111     -0.555555555556      0.000000000000
      0.111111111111      0.555555555556     -0.000000000000
      0.333333333333     -0.111111111111     -0.000000000000
      0.444444444444      0.333333333333      0.000000000000
     -0.444444444444     -0.333333333333     -0.000000000000
     -0.111111111111     -0.444444444444      0.000000000000
      0.111111111111      0.444444444444     -0.000000000000
      0.222222222222     -0.111111111111     -0.000000000000
      0.333333333333      0.222222222222      0.000000000000
     -0.333333333333     -0.222222222222     -0.000000000000
     -0.111111111111     -0.333333333333      0.000000000000
      0.111111111111      0.333333333333     -0.000000000000
     -0.444444444444     -0.222222222222     -0.000000000000
     -0.222222222222     -0.444444444444      0.000000000000
      0.222222222222      0.444444444444     -0.000000000000
     -0.222222222222      0.222222222222      0.000000000000
      0.222222222222     -0.222222222222     -0.000000000000
      0.444444444444     -0.222222222222     -0.000000000000
      0.666666666667      0.444444444444      0.000000000000
     -0.666666666667     -0.444444444444     -0.000000000000
     -0.222222222222     -0.666666666667      0.000000000000
      0.222222222222      0.666666666667     -0.000000000000
      0.333333333333     -0.222222222222     -0.000000000000
      0.555555555556      0.333333333333      0.000000000000
     -0.555555555556     -0.333333333333     -0.000000000000
     -0.222222222222     -0.555555555556      0.000000000000
      0.222222222222      0.555555555556     -0.000000000000
      0.333333333333     -0.333333333333     -0.000000000000
end kpoints
