 conv_tol = 1d-12
 conv_window = 5
 num_iter = 400
 iprint = 2
kmesh_tol = 1e-4

Begin Projections
 Fe:l=2,mr=1,2,3,4,5
 O :l=1,mr=1,2,3
 Fe:s
End Projections

 dis_conv_tol = 1d-12
 dis_conv_window = 9
 dis_num_iter = 200

 num_wann = 18
 num_bands = 24

 dis_win_min = 0.0
 dis_win_max = 19.0 
 dis_froz_min= 0.0
 dis_froz_max= 13.8

 write_xyz = true
 write_hr = true


Begin Unit_Cell_Cart
Bohr
4.095 4.095 8.190 
4.095 8.190 4.095
8.190 4.095 4.095
End Unit_Cell_Cart


Begin Atoms_frac
 O  0.25 0.25 0.25
 O  0.75 0.75 0.75
 Fe 0.0  0.0  0.0
 Fe 0.5  0.5  0.5
End Atoms_frac

mp_grid = 7 7 7

Begin Kpoints
  0.0000000   0.0000000   0.0000000
  0.0000000   0.0000000   0.1428571
  0.0000000   0.0000000   0.2857143
 -0.0000000  -0.0000000   0.4285714
  0.0000000   0.0000000  -0.4285714
  0.0000000   0.0000000  -0.2857143
  0.0000000   0.0000000  -0.1428571
  0.0000000   0.1428571   0.0000000
  0.0000000   0.1428571   0.1428571
 -0.0000000   0.1428571   0.2857143
  0.0000000   0.1428571   0.4285714
  0.0000000   0.1428571  -0.4285714
 -0.0000000   0.1428571  -0.2857143
 -0.0000000   0.1428571  -0.1428571
  0.0000000   0.2857143   0.0000000
 -0.0000000   0.2857143   0.1428571
  0.0000000   0.2857143   0.2857143
  0.0000000   0.2857143   0.4285714
 -0.0000000   0.2857143  -0.4285714
  0.0000000   0.2857143  -0.2857143
  0.0000000   0.2857143  -0.1428571
 -0.0000000   0.4285714  -0.0000000
  0.0000000   0.4285714   0.1428571
  0.0000000   0.4285714   0.2857143
 -0.0000000   0.4285714   0.4285714
 -0.0000000   0.4285714  -0.4285714
 -0.0000000   0.4285714  -0.2857143
 -0.0000000   0.4285714  -0.1428571
  0.0000000  -0.4285714   0.0000000
  0.0000000  -0.4285714   0.1428571
 -0.0000000  -0.4285714   0.2857143
 -0.0000000  -0.4285714   0.4285714
  0.0000000  -0.4285714  -0.4285714
  0.0000000  -0.4285714  -0.2857143
  0.0000000  -0.4285714  -0.1428571
  0.0000000  -0.2857143   0.0000000
 -0.0000000  -0.2857143   0.1428571
  0.0000000  -0.2857143   0.2857143
 -0.0000000  -0.2857143   0.4285714
  0.0000000  -0.2857143  -0.4285714
  0.0000000  -0.2857143  -0.2857143
  0.0000000  -0.2857143  -0.1428571
  0.0000000  -0.1428571   0.0000000
 -0.0000000  -0.1428571   0.1428571
  0.0000000  -0.1428571   0.2857143
 -0.0000000  -0.1428571   0.4285714
  0.0000000  -0.1428571  -0.4285714
  0.0000000  -0.1428571  -0.2857143
  0.0000000  -0.1428571  -0.1428571
  0.1428571   0.0000000   0.0000000
  0.1428571   0.0000000   0.1428571
  0.1428571  -0.0000000   0.2857143
  0.1428571   0.0000000   0.4285714
  0.1428571   0.0000000  -0.4285714
  0.1428571  -0.0000000  -0.2857143
  0.1428571  -0.0000000  -0.1428571
  0.1428571   0.1428571   0.0000000
  0.1428571   0.1428571   0.1428571
  0.1428571   0.1428571   0.2857143
  0.1428571   0.1428571   0.4285714
  0.1428571   0.1428571  -0.4285714
  0.1428571   0.1428571  -0.2857143
  0.1428571   0.1428571  -0.1428571
  0.1428571   0.2857143  -0.0000000
  0.1428571   0.2857143   0.1428571
  0.1428571   0.2857143   0.2857143
  0.1428571   0.2857143   0.4285714
  0.1428571   0.2857143  -0.4285714
  0.1428571   0.2857143  -0.2857143
  0.1428571   0.2857143  -0.1428571
  0.1428571   0.4285714   0.0000000
  0.1428571   0.4285714   0.1428571
  0.1428571   0.4285714   0.2857143
  0.1428571   0.4285714   0.4285714
  0.1428571   0.4285714  -0.4285714
  0.1428571   0.4285714  -0.2857143
  0.1428571   0.4285714  -0.1428571
  0.1428571  -0.4285714   0.0000000
  0.1428571  -0.4285714   0.1428571
  0.1428571  -0.4285714   0.2857143
  0.1428571  -0.4285714   0.4285714
  0.1428571  -0.4285714  -0.4285714
  0.1428571  -0.4285714  -0.2857143
  0.1428571  -0.4285714  -0.1428571
  0.1428571  -0.2857143  -0.0000000
  0.1428571  -0.2857143   0.1428571
  0.1428571  -0.2857143   0.2857143
  0.1428571  -0.2857143   0.4285714
  0.1428571  -0.2857143  -0.4285714
  0.1428571  -0.2857143  -0.2857143
  0.1428571  -0.2857143  -0.1428571
  0.1428571  -0.1428571  -0.0000000
  0.1428571  -0.1428571   0.1428571
  0.1428571  -0.1428571   0.2857143
  0.1428571  -0.1428571   0.4285714
  0.1428571  -0.1428571  -0.4285714
  0.1428571  -0.1428571  -0.2857143
  0.1428571  -0.1428571  -0.1428571
  0.2857143   0.0000000   0.0000000
  0.2857143   0.0000000   0.1428571
  0.2857143   0.0000000   0.2857143
  0.2857143   0.0000000   0.4285714
  0.2857143  -0.0000000  -0.4285714
  0.2857143   0.0000000  -0.2857143
  0.2857143   0.0000000  -0.1428571
  0.2857143   0.1428571   0.0000000
  0.2857143   0.1428571   0.1428571
  0.2857143   0.1428571   0.2857143
  0.2857143   0.1428571   0.4285714
  0.2857143   0.1428571  -0.4285714
  0.2857143   0.1428571  -0.2857143
  0.2857143   0.1428571  -0.1428571
  0.2857143   0.2857143   0.0000000
  0.2857143   0.2857143   0.1428571
  0.2857143   0.2857143   0.2857143
  0.2857143   0.2857143   0.4285714
  0.2857143   0.2857143  -0.4285714
  0.2857143   0.2857143  -0.2857143
  0.2857143   0.2857143  -0.1428571
  0.2857143   0.4285714   0.0000000
  0.2857143   0.4285714   0.1428571
  0.2857143   0.4285714   0.2857143
  0.2857143   0.4285714   0.4285714
  0.2857143   0.4285714  -0.4285714
  0.2857143   0.4285714  -0.2857143
  0.2857143   0.4285714  -0.1428571
  0.2857143  -0.4285714  -0.0000000
  0.2857143  -0.4285714   0.1428571
  0.2857143  -0.4285714   0.2857143
  0.2857143  -0.4285714   0.4285714
  0.2857143  -0.4285714  -0.4285714
  0.2857143  -0.4285714  -0.2857143
  0.2857143  -0.4285714  -0.1428571
  0.2857143  -0.2857143   0.0000000
  0.2857143  -0.2857143   0.1428571
  0.2857143  -0.2857143   0.2857143
  0.2857143  -0.2857143   0.4285714
  0.2857143  -0.2857143  -0.4285714
  0.2857143  -0.2857143  -0.2857143
  0.2857143  -0.2857143  -0.1428571
  0.2857143  -0.1428571   0.0000000
  0.2857143  -0.1428571   0.1428571
  0.2857143  -0.1428571   0.2857143
  0.2857143  -0.1428571   0.4285714
  0.2857143  -0.1428571  -0.4285714
  0.2857143  -0.1428571  -0.2857143
  0.2857143  -0.1428571  -0.1428571
  0.4285714   0.0000000   0.0000000
  0.4285714   0.0000000   0.1428571
  0.4285714   0.0000000   0.2857143
  0.4285714  -0.0000000   0.4285714
  0.4285714  -0.0000000  -0.4285714
  0.4285714   0.0000000  -0.2857143
  0.4285714   0.0000000  -0.1428571
  0.4285714   0.1428571   0.0000000
  0.4285714   0.1428571   0.1428571
  0.4285714   0.1428571   0.2857143
  0.4285714   0.1428571   0.4285714
  0.4285714   0.1428571  -0.4285714
  0.4285714   0.1428571  -0.2857143
  0.4285714   0.1428571  -0.1428571
  0.4285714   0.2857143   0.0000000
  0.4285714   0.2857143   0.1428571
  0.4285714   0.2857143   0.2857143
  0.4285714   0.2857143   0.4285714
  0.4285714   0.2857143  -0.4285714
  0.4285714   0.2857143  -0.2857143
  0.4285714   0.2857143  -0.1428571
  0.4285714   0.4285714  -0.0000000
  0.4285714   0.4285714   0.1428571
  0.4285714   0.4285714   0.2857143
  0.4285714   0.4285714   0.4285714
  0.4285714   0.4285714  -0.4285714
  0.4285714   0.4285714  -0.2857143
  0.4285714   0.4285714  -0.1428571
  0.4285714  -0.4285714  -0.0000000
  0.4285714  -0.4285714   0.1428571
  0.4285714  -0.4285714   0.2857143
  0.4285714  -0.4285714   0.4285714
  0.4285714  -0.4285714  -0.4285714
  0.4285714  -0.4285714  -0.2857143
  0.4285714  -0.4285714  -0.1428571
  0.4285714  -0.2857143   0.0000000
  0.4285714  -0.2857143   0.1428571
  0.4285714  -0.2857143   0.2857143
  0.4285714  -0.2857143   0.4285714
  0.4285714  -0.2857143  -0.4285714
  0.4285714  -0.2857143  -0.2857143
  0.4285714  -0.2857143  -0.1428571
  0.4285714  -0.1428571   0.0000000
  0.4285714  -0.1428571   0.1428571
  0.4285714  -0.1428571   0.2857143
  0.4285714  -0.1428571   0.4285714
  0.4285714  -0.1428571  -0.4285714
  0.4285714  -0.1428571  -0.2857143
  0.4285714  -0.1428571  -0.1428571
 -0.4285714   0.0000000   0.0000000
 -0.4285714   0.0000000   0.1428571
 -0.4285714  -0.0000000   0.2857143
 -0.4285714   0.0000000   0.4285714
 -0.4285714   0.0000000  -0.4285714
 -0.4285714   0.0000000  -0.2857143
 -0.4285714   0.0000000  -0.1428571
 -0.4285714   0.1428571   0.0000000
 -0.4285714   0.1428571   0.1428571
 -0.4285714   0.1428571   0.2857143
 -0.4285714   0.1428571   0.4285714
 -0.4285714   0.1428571  -0.4285714
 -0.4285714   0.1428571  -0.2857143
 -0.4285714   0.1428571  -0.1428571
 -0.4285714   0.2857143  -0.0000000
 -0.4285714   0.2857143   0.1428571
 -0.4285714   0.2857143   0.2857143
 -0.4285714   0.2857143   0.4285714
 -0.4285714   0.2857143  -0.4285714
 -0.4285714   0.2857143  -0.2857143
 -0.4285714   0.2857143  -0.1428571
 -0.4285714   0.4285714   0.0000000
 -0.4285714   0.4285714   0.1428571
 -0.4285714   0.4285714   0.2857143
 -0.4285714   0.4285714   0.4285714
 -0.4285714   0.4285714  -0.4285714
 -0.4285714   0.4285714  -0.2857143
 -0.4285714   0.4285714  -0.1428571
 -0.4285714  -0.4285714   0.0000000
 -0.4285714  -0.4285714   0.1428571
 -0.4285714  -0.4285714   0.2857143
 -0.4285714  -0.4285714   0.4285714
 -0.4285714  -0.4285714  -0.4285714
 -0.4285714  -0.4285714  -0.2857143
 -0.4285714  -0.4285714  -0.1428571
 -0.4285714  -0.2857143   0.0000000
 -0.4285714  -0.2857143   0.1428571
 -0.4285714  -0.2857143   0.2857143
 -0.4285714  -0.2857143   0.4285714
 -0.4285714  -0.2857143  -0.4285714
 -0.4285714  -0.2857143  -0.2857143
 -0.4285714  -0.2857143  -0.1428571
 -0.4285714  -0.1428571   0.0000000
 -0.4285714  -0.1428571   0.1428571
 -0.4285714  -0.1428571   0.2857143
 -0.4285714  -0.1428571   0.4285714
 -0.4285714  -0.1428571  -0.4285714
 -0.4285714  -0.1428571  -0.2857143
 -0.4285714  -0.1428571  -0.1428571
 -0.2857143   0.0000000   0.0000000
 -0.2857143  -0.0000000   0.1428571
 -0.2857143   0.0000000   0.2857143
 -0.2857143   0.0000000   0.4285714
 -0.2857143   0.0000000  -0.4285714
 -0.2857143   0.0000000  -0.2857143
 -0.2857143   0.0000000  -0.1428571
 -0.2857143   0.1428571  -0.0000000
 -0.2857143   0.1428571   0.1428571
 -0.2857143   0.1428571   0.2857143
 -0.2857143   0.1428571   0.4285714
 -0.2857143   0.1428571  -0.4285714
 -0.2857143   0.1428571  -0.2857143
 -0.2857143   0.1428571  -0.1428571
 -0.2857143   0.2857143   0.0000000
 -0.2857143   0.2857143   0.1428571
 -0.2857143   0.2857143   0.2857143
 -0.2857143   0.2857143   0.4285714
 -0.2857143   0.2857143  -0.4285714
 -0.2857143   0.2857143  -0.2857143
 -0.2857143   0.2857143  -0.1428571
 -0.2857143   0.4285714   0.0000000
 -0.2857143   0.4285714   0.1428571
 -0.2857143   0.4285714   0.2857143
 -0.2857143   0.4285714   0.4285714
 -0.2857143   0.4285714  -0.4285714
 -0.2857143   0.4285714  -0.2857143
 -0.2857143   0.4285714  -0.1428571
 -0.2857143  -0.4285714   0.0000000
 -0.2857143  -0.4285714   0.1428571
 -0.2857143  -0.4285714   0.2857143
 -0.2857143  -0.4285714   0.4285714
 -0.2857143  -0.4285714  -0.4285714
 -0.2857143  -0.4285714  -0.2857143
 -0.2857143  -0.4285714  -0.1428571
 -0.2857143  -0.2857143   0.0000000
 -0.2857143  -0.2857143   0.1428571
 -0.2857143  -0.2857143   0.2857143
 -0.2857143  -0.2857143   0.4285714
 -0.2857143  -0.2857143  -0.4285714
 -0.2857143  -0.2857143  -0.2857143
 -0.2857143  -0.2857143  -0.1428571
 -0.2857143  -0.1428571   0.0000000
 -0.2857143  -0.1428571   0.1428571
 -0.2857143  -0.1428571   0.2857143
 -0.2857143  -0.1428571   0.4285714
 -0.2857143  -0.1428571  -0.4285714
 -0.2857143  -0.1428571  -0.2857143
 -0.2857143  -0.1428571  -0.1428571
 -0.1428571   0.0000000   0.0000000
 -0.1428571  -0.0000000   0.1428571
 -0.1428571   0.0000000   0.2857143
 -0.1428571  -0.0000000   0.4285714
 -0.1428571   0.0000000  -0.4285714
 -0.1428571   0.0000000  -0.2857143
 -0.1428571   0.0000000  -0.1428571
 -0.1428571   0.1428571  -0.0000000
 -0.1428571   0.1428571   0.1428571
 -0.1428571   0.1428571   0.2857143
 -0.1428571   0.1428571   0.4285714
 -0.1428571   0.1428571  -0.4285714
 -0.1428571   0.1428571  -0.2857143
 -0.1428571   0.1428571  -0.1428571
 -0.1428571   0.2857143   0.0000000
 -0.1428571   0.2857143   0.1428571
 -0.1428571   0.2857143   0.2857143
 -0.1428571   0.2857143   0.4285714
 -0.1428571   0.2857143  -0.4285714
 -0.1428571   0.2857143  -0.2857143
 -0.1428571   0.2857143  -0.1428571
 -0.1428571   0.4285714  -0.0000000
 -0.1428571   0.4285714   0.1428571
 -0.1428571   0.4285714   0.2857143
 -0.1428571   0.4285714   0.4285714
 -0.1428571   0.4285714  -0.4285714
 -0.1428571   0.4285714  -0.2857143
 -0.1428571   0.4285714  -0.1428571
 -0.1428571  -0.4285714   0.0000000
 -0.1428571  -0.4285714   0.1428571
 -0.1428571  -0.4285714   0.2857143
 -0.1428571  -0.4285714   0.4285714
 -0.1428571  -0.4285714  -0.4285714
 -0.1428571  -0.4285714  -0.2857143
 -0.1428571  -0.4285714  -0.1428571
 -0.1428571  -0.2857143   0.0000000
 -0.1428571  -0.2857143   0.1428571
 -0.1428571  -0.2857143   0.2857143
 -0.1428571  -0.2857143   0.4285714
 -0.1428571  -0.2857143  -0.4285714
 -0.1428571  -0.2857143  -0.2857143
 -0.1428571  -0.2857143  -0.1428571
 -0.1428571  -0.1428571   0.0000000
 -0.1428571  -0.1428571   0.1428571
 -0.1428571  -0.1428571   0.2857143
 -0.1428571  -0.1428571   0.4285714
 -0.1428571  -0.1428571  -0.4285714
 -0.1428571  -0.1428571  -0.2857143
 -0.1428571  -0.1428571  -0.1428571
End Kpoints


